Optimal - objective value 47.00000000
     25 x_1_30                   1                       0
     50 x_2_15                   1                       0
     76 x_3_4                    1                       0
    112 x_4_9                    1                       0
    162 x_5_33                   1                       0
    205 x_6_35                   1                       0
    222 x_7_20                   1                       0
    251 x_8_11                   1                       0
    274 x_9_0                    1                       0
    322 x_10_26                  1                       0
    370 x_11_41                  1                       0
    401 x_12_47                  1                      47
